\* NBA *\
Maximize
Objective: 23.3565229591 ('Al_Horford',_'C',_'BOS')_C_36602951
 + 23.3992924793 ('Al_Horford',_'C',_'BOS')_UTIL_36602951
 + 40.4203878816 ('Alperen_Sengun',_'C',_'HOU')_C_36602902
 + 40.4650266649 ('Alperen_Sengun',_'C',_'HOU')_UTIL_36602902
 + 22.5491034368 ('Amen_Thompson',_'PG_SF',_'HOU')_F_36602953
 + 22.3517689264 ('Amen_Thompson',_'PG_SF',_'HOU')_G_36602953
 + 22.6104010479 ('Amen_Thompson',_'PG_SF',_'HOU')_PG_36602953
 + 22.4232056156 ('Amen_Thompson',_'PG_SF',_'HOU')_SF_36602953
 + 23.0309851245 ('Amen_Thompson',_'PG_SF',_'HOU')_UTIL_36602953
 + 26.3319701253 ('Bobby_Portis',_'PF_C',_'MIL')_C_36602916
 + 26.2502462386 ('Bobby_Portis',_'PF_C',_'MIL')_F_36602916
 + 26.4043742914 ('Bobby_Portis',_'PF_C',_'MIL')_PF_36602916
 + 25.9785183419 ('Bobby_Portis',_'PF_C',_'MIL')_UTIL_36602916
 + 23.5628650889 ('Brook_Lopez',_'C',_'MIL')_C_36602934
 + 23.8438853583 ('Brook_Lopez',_'C',_'MIL')_UTIL_36602934
 + 46.770551387 ('Cade_Cunningham',_'PG',_'DET')_G_36602894
 + 46.9414366899 ('Cade_Cunningham',_'PG',_'DET')_PG_36602894
 + 46.8047634776 ('Cade_Cunningham',_'PG',_'DET')_UTIL_36602894
 + 45.2380896125 ('Damian_Lillard',_'PG',_'MIL')_G_36602891
 + 45.7040529517 ('Damian_Lillard',_'PG',_'MIL')_PG_36602891
 + 45.1124881632 ('Damian_Lillard',_'PG',_'MIL')_UTIL_36602891
 + 36.5940904205 ('Derrick_White',_'PG_SG',_'BOS')_G_36602909
 + 36.4045671004 ('Derrick_White',_'PG_SG',_'BOS')_PG_36602909
 + 36.4721862165 ('Derrick_White',_'PG_SG',_'BOS')_SG_36602909
 + 35.8202281358 ('Derrick_White',_'PG_SG',_'BOS')_UTIL_36602909
 + 31.1426842841 ('Fred_VanVleet',_'PG',_'HOU')_G_36602913
 + 31.2619517253 ('Fred_VanVleet',_'PG',_'HOU')_PG_36602913
 + 31.0319535105 ('Fred_VanVleet',_'PG',_'HOU')_UTIL_36602913
 + 56.4371897169 ('Giannis_Antetokounmpo',_'PF_C',_'MIL')_C_36602883
 + 56.1143997496 ('Giannis_Antetokounmpo',_'PF_C',_'MIL')_F_36602883
 + 56.6547343444 ('Giannis_Antetokounmpo',_'PF_C',_'MIL')_PF_36602883
 + 56.7209405966 ('Giannis_Antetokounmpo',_'PF_C',_'MIL')_UTIL_36602883
 + 21.0569851007 ('Isaiah_Stewart',_'C',_'DET')_C_36602969
 + 20.1296288546 ('Isaiah_Stewart',_'C',_'DET')_UTIL_36602969
 + 23.5257682809 ('Jabari_Smith_Jr.',_'PF_C',_'HOU')_C_36602936
 + 23.2551984239 ('Jabari_Smith_Jr.',_'PF_C',_'HOU')_F_36602936
 + 23.1705190934 ('Jabari_Smith_Jr.',_'PF_C',_'HOU')_PF_36602936
 + 22.934391617 ('Jabari_Smith_Jr.',_'PF_C',_'HOU')_UTIL_36602936
 + 33.3060867264 ('Jaden_Ivey',_'PG_SG',_'DET')_G_36602925
 + 33.2495078404 ('Jaden_Ivey',_'PG_SG',_'DET')_PG_36602925
 + 32.6661166488 ('Jaden_Ivey',_'PG_SG',_'DET')_SG_36602925
 + 33.1633506169 ('Jaden_Ivey',_'PG_SG',_'DET')_UTIL_36602925
 + 26.372110223 ('Jalen_Duren',_'C',_'DET')_C_36602932
 + 26.7123781792 ('Jalen_Duren',_'C',_'DET')_UTIL_36602932
 + 34.5571223319 ('Jalen_Green',_'SG',_'HOU')_G_36602906
 + 34.7912193622 ('Jalen_Green',_'SG',_'HOU')_SG_36602906
 + 34.6758524379 ('Jalen_Green',_'SG',_'HOU')_UTIL_36602906
 + 44.1002904161 ('Jaylen_Brown',_'SG_SF',_'BOS')_F_36602897
 + 44.4117467124 ('Jaylen_Brown',_'SG_SF',_'BOS')_G_36602897
 + 44.3312863308 ('Jaylen_Brown',_'SG_SF',_'BOS')_SF_36602897
 + 44.2488470333 ('Jaylen_Brown',_'SG_SF',_'BOS')_SG_36602897
 + 44.7748169432 ('Jaylen_Brown',_'SG_SF',_'BOS')_UTIL_36602897
 + 53.0957405911 ('Jayson_Tatum',_'SF_PF',_'BOS')_F_36602887
 + 53.0822963774 ('Jayson_Tatum',_'SF_PF',_'BOS')_PF_36602887
 + 52.7736258763 ('Jayson_Tatum',_'SF_PF',_'BOS')_SF_36602887
 + 53.1341129547 ('Jayson_Tatum',_'SF_PF',_'BOS')_UTIL_36602887
 + 23.7750694718 ('Jrue_Holiday',_'PG',_'BOS')_G_36602940
 + 24.4959028162 ('Jrue_Holiday',_'PG',_'BOS')_PG_36602940
 + 24.8658657548 ('Jrue_Holiday',_'PG',_'BOS')_UTIL_36602940
 + 27.1385121083 ('Payton_Pritchard',_'PG_SG',_'BOS')_G_36602943
 + 26.68468965 ('Payton_Pritchard',_'PG_SG',_'BOS')_PG_36602943
 + 27.341419254 ('Payton_Pritchard',_'PG_SG',_'BOS')_SG_36602943
 + 26.9290910825 ('Payton_Pritchard',_'PG_SG',_'BOS')_UTIL_36602943
 + 24.5301333064 ('Tari_Eason',_'SF_PF',_'HOU')_F_36602965
 + 24.7004751891 ('Tari_Eason',_'SF_PF',_'HOU')_PF_36602965
 + 25.516604137 ('Tari_Eason',_'SF_PF',_'HOU')_SF_36602965
 + 24.5459362243 ('Tari_Eason',_'SF_PF',_'HOU')_UTIL_36602965
 + 31.2566938164 ('Tobias_Harris',_'PF',_'DET')_F_36602929
 + 31.0571034485 ('Tobias_Harris',_'PF',_'DET')_PF_36602929
 + 31.2509998612 ('Tobias_Harris',_'PF',_'DET')_UTIL_36602929
Subject To
Can_only_select_('Al_Horford',_'C',_'BOS')_once:
 ('Al_Horford',_'C',_'BOS')_C_36602951
 + ('Al_Horford',_'C',_'BOS')_UTIL_36602951 <= 1
Can_only_select_('Alperen_Sengun',_'C',_'HOU')_once:
 ('Alperen_Sengun',_'C',_'HOU')_C_36602902
 + ('Alperen_Sengun',_'C',_'HOU')_UTIL_36602902 <= 1
Can_only_select_('Amen_Thompson',_'PG/SF',_'HOU')_once:
 ('Amen_Thompson',_'PG_SF',_'HOU')_F_36602953
 + ('Amen_Thompson',_'PG_SF',_'HOU')_G_36602953
 + ('Amen_Thompson',_'PG_SF',_'HOU')_PG_36602953
 + ('Amen_Thompson',_'PG_SF',_'HOU')_SF_36602953
 + ('Amen_Thompson',_'PG_SF',_'HOU')_UTIL_36602953 <= 1
Can_only_select_('Bobby_Portis',_'PF/C',_'MIL')_once:
 ('Bobby_Portis',_'PF_C',_'MIL')_C_36602916
 + ('Bobby_Portis',_'PF_C',_'MIL')_F_36602916
 + ('Bobby_Portis',_'PF_C',_'MIL')_PF_36602916
 + ('Bobby_Portis',_'PF_C',_'MIL')_UTIL_36602916 <= 1
Can_only_select_('Brook_Lopez',_'C',_'MIL')_once:
 ('Brook_Lopez',_'C',_'MIL')_C_36602934
 + ('Brook_Lopez',_'C',_'MIL')_UTIL_36602934 <= 1
Can_only_select_('Cade_Cunningham',_'PG',_'DET')_once:
 ('Cade_Cunningham',_'PG',_'DET')_G_36602894
 + ('Cade_Cunningham',_'PG',_'DET')_PG_36602894
 + ('Cade_Cunningham',_'PG',_'DET')_UTIL_36602894 <= 1
Can_only_select_('Damian_Lillard',_'PG',_'MIL')_once:
 ('Damian_Lillard',_'PG',_'MIL')_G_36602891
 + ('Damian_Lillard',_'PG',_'MIL')_PG_36602891
 + ('Damian_Lillard',_'PG',_'MIL')_UTIL_36602891 <= 1
Can_only_select_('Derrick_White',_'PG/SG',_'BOS')_once:
 ('Derrick_White',_'PG_SG',_'BOS')_G_36602909
 + ('Derrick_White',_'PG_SG',_'BOS')_PG_36602909
 + ('Derrick_White',_'PG_SG',_'BOS')_SG_36602909
 + ('Derrick_White',_'PG_SG',_'BOS')_UTIL_36602909 <= 1
Can_only_select_('Fred_VanVleet',_'PG',_'HOU')_once:
 ('Fred_VanVleet',_'PG',_'HOU')_G_36602913
 + ('Fred_VanVleet',_'PG',_'HOU')_PG_36602913
 + ('Fred_VanVleet',_'PG',_'HOU')_UTIL_36602913 <= 1
Can_only_select_('Giannis_Antetokounmpo',_'PF/C',_'MIL')_once:
 ('Giannis_Antetokounmpo',_'PF_C',_'MIL')_C_36602883
 + ('Giannis_Antetokounmpo',_'PF_C',_'MIL')_F_36602883
 + ('Giannis_Antetokounmpo',_'PF_C',_'MIL')_PF_36602883
 + ('Giannis_Antetokounmpo',_'PF_C',_'MIL')_UTIL_36602883 <= 1
Can_only_select_('Isaiah_Stewart',_'C',_'DET')_once:
 ('Isaiah_Stewart',_'C',_'DET')_C_36602969
 + ('Isaiah_Stewart',_'C',_'DET')_UTIL_36602969 <= 1
Can_only_select_('Jabari_Smith_Jr.',_'PF/C',_'HOU')_once:
 ('Jabari_Smith_Jr.',_'PF_C',_'HOU')_C_36602936
 + ('Jabari_Smith_Jr.',_'PF_C',_'HOU')_F_36602936
 + ('Jabari_Smith_Jr.',_'PF_C',_'HOU')_PF_36602936
 + ('Jabari_Smith_Jr.',_'PF_C',_'HOU')_UTIL_36602936 <= 1
Can_only_select_('Jaden_Ivey',_'PG/SG',_'DET')_once:
 ('Jaden_Ivey',_'PG_SG',_'DET')_G_36602925
 + ('Jaden_Ivey',_'PG_SG',_'DET')_PG_36602925
 + ('Jaden_Ivey',_'PG_SG',_'DET')_SG_36602925
 + ('Jaden_Ivey',_'PG_SG',_'DET')_UTIL_36602925 <= 1
Can_only_select_('Jalen_Duren',_'C',_'DET')_once:
 ('Jalen_Duren',_'C',_'DET')_C_36602932
 + ('Jalen_Duren',_'C',_'DET')_UTIL_36602932 <= 1
Can_only_select_('Jalen_Green',_'SG',_'HOU')_once:
 ('Jalen_Green',_'SG',_'HOU')_G_36602906
 + ('Jalen_Green',_'SG',_'HOU')_SG_36602906
 + ('Jalen_Green',_'SG',_'HOU')_UTIL_36602906 <= 1
Can_only_select_('Jaylen_Brown',_'SG/SF',_'BOS')_once:
 ('Jaylen_Brown',_'SG_SF',_'BOS')_F_36602897
 + ('Jaylen_Brown',_'SG_SF',_'BOS')_G_36602897
 + ('Jaylen_Brown',_'SG_SF',_'BOS')_SF_36602897
 + ('Jaylen_Brown',_'SG_SF',_'BOS')_SG_36602897
 + ('Jaylen_Brown',_'SG_SF',_'BOS')_UTIL_36602897 <= 1
Can_only_select_('Jayson_Tatum',_'SF/PF',_'BOS')_once:
 ('Jayson_Tatum',_'SF_PF',_'BOS')_F_36602887
 + ('Jayson_Tatum',_'SF_PF',_'BOS')_PF_36602887
 + ('Jayson_Tatum',_'SF_PF',_'BOS')_SF_36602887
 + ('Jayson_Tatum',_'SF_PF',_'BOS')_UTIL_36602887 <= 1
Can_only_select_('Jrue_Holiday',_'PG',_'BOS')_once:
 ('Jrue_Holiday',_'PG',_'BOS')_G_36602940
 + ('Jrue_Holiday',_'PG',_'BOS')_PG_36602940
 + ('Jrue_Holiday',_'PG',_'BOS')_UTIL_36602940 <= 1
Can_only_select_('Payton_Pritchard',_'PG/SG',_'BOS')_once:
 ('Payton_Pritchard',_'PG_SG',_'BOS')_G_36602943
 + ('Payton_Pritchard',_'PG_SG',_'BOS')_PG_36602943
 + ('Payton_Pritchard',_'PG_SG',_'BOS')_SG_36602943
 + ('Payton_Pritchard',_'PG_SG',_'BOS')_UTIL_36602943 <= 1
Can_only_select_('Tari_Eason',_'SF/PF',_'HOU')_once:
 ('Tari_Eason',_'SF_PF',_'HOU')_F_36602965
 + ('Tari_Eason',_'SF_PF',_'HOU')_PF_36602965
 + ('Tari_Eason',_'SF_PF',_'HOU')_SF_36602965
 + ('Tari_Eason',_'SF_PF',_'HOU')_UTIL_36602965 <= 1
Can_only_select_('Tobias_Harris',_'PF',_'DET')_once:
 ('Tobias_Harris',_'PF',_'DET')_F_36602929
 + ('Tobias_Harris',_'PF',_'DET')_PF_36602929
 + ('Tobias_Harris',_'PF',_'DET')_UTIL_36602929 <= 1
Global_team_limit___at_most_4_players_from_BOS:
 ('Al_Horford',_'C',_'BOS')_C_36602951
 + ('Al_Horford',_'C',_'BOS')_UTIL_36602951
 + ('Derrick_White',_'PG_SG',_'BOS')_G_36602909
 + ('Derrick_White',_'PG_SG',_'BOS')_PG_36602909
 + ('Derrick_White',_'PG_SG',_'BOS')_SG_36602909
 + ('Derrick_White',_'PG_SG',_'BOS')_UTIL_36602909
 + ('Jaylen_Brown',_'SG_SF',_'BOS')_F_36602897
 + ('Jaylen_Brown',_'SG_SF',_'BOS')_G_36602897
 + ('Jaylen_Brown',_'SG_SF',_'BOS')_SF_36602897
 + ('Jaylen_Brown',_'SG_SF',_'BOS')_SG_36602897
 + ('Jaylen_Brown',_'SG_SF',_'BOS')_UTIL_36602897
 + ('Jayson_Tatum',_'SF_PF',_'BOS')_F_36602887
 + ('Jayson_Tatum',_'SF_PF',_'BOS')_PF_36602887
 + ('Jayson_Tatum',_'SF_PF',_'BOS')_SF_36602887
 + ('Jayson_Tatum',_'SF_PF',_'BOS')_UTIL_36602887
 + ('Jrue_Holiday',_'PG',_'BOS')_G_36602940
 + ('Jrue_Holiday',_'PG',_'BOS')_PG_36602940
 + ('Jrue_Holiday',_'PG',_'BOS')_UTIL_36602940
 + ('Payton_Pritchard',_'PG_SG',_'BOS')_G_36602943
 + ('Payton_Pritchard',_'PG_SG',_'BOS')_PG_36602943
 + ('Payton_Pritchard',_'PG_SG',_'BOS')_SG_36602943
 + ('Payton_Pritchard',_'PG_SG',_'BOS')_UTIL_36602943 <= 4
Global_team_limit___at_most_4_players_from_DET:
 ('Cade_Cunningham',_'PG',_'DET')_G_36602894
 + ('Cade_Cunningham',_'PG',_'DET')_PG_36602894
 + ('Cade_Cunningham',_'PG',_'DET')_UTIL_36602894
 + ('Isaiah_Stewart',_'C',_'DET')_C_36602969
 + ('Isaiah_Stewart',_'C',_'DET')_UTIL_36602969
 + ('Jaden_Ivey',_'PG_SG',_'DET')_G_36602925
 + ('Jaden_Ivey',_'PG_SG',_'DET')_PG_36602925
 + ('Jaden_Ivey',_'PG_SG',_'DET')_SG_36602925
 + ('Jaden_Ivey',_'PG_SG',_'DET')_UTIL_36602925
 + ('Jalen_Duren',_'C',_'DET')_C_36602932
 + ('Jalen_Duren',_'C',_'DET')_UTIL_36602932
 + ('Tobias_Harris',_'PF',_'DET')_F_36602929
 + ('Tobias_Harris',_'PF',_'DET')_PF_36602929
 + ('Tobias_Harris',_'PF',_'DET')_UTIL_36602929 <= 4
Global_team_limit___at_most_4_players_from_HOU:
 ('Alperen_Sengun',_'C',_'HOU')_C_36602902
 + ('Alperen_Sengun',_'C',_'HOU')_UTIL_36602902
 + ('Amen_Thompson',_'PG_SF',_'HOU')_F_36602953
 + ('Amen_Thompson',_'PG_SF',_'HOU')_G_36602953
 + ('Amen_Thompson',_'PG_SF',_'HOU')_PG_36602953
 + ('Amen_Thompson',_'PG_SF',_'HOU')_SF_36602953
 + ('Amen_Thompson',_'PG_SF',_'HOU')_UTIL_36602953
 + ('Fred_VanVleet',_'PG',_'HOU')_G_36602913
 + ('Fred_VanVleet',_'PG',_'HOU')_PG_36602913
 + ('Fred_VanVleet',_'PG',_'HOU')_UTIL_36602913
 + ('Jabari_Smith_Jr.',_'PF_C',_'HOU')_C_36602936
 + ('Jabari_Smith_Jr.',_'PF_C',_'HOU')_F_36602936
 + ('Jabari_Smith_Jr.',_'PF_C',_'HOU')_PF_36602936
 + ('Jabari_Smith_Jr.',_'PF_C',_'HOU')_UTIL_36602936
 + ('Jalen_Green',_'SG',_'HOU')_G_36602906
 + ('Jalen_Green',_'SG',_'HOU')_SG_36602906
 + ('Jalen_Green',_'SG',_'HOU')_UTIL_36602906
 + ('Tari_Eason',_'SF_PF',_'HOU')_F_36602965
 + ('Tari_Eason',_'SF_PF',_'HOU')_PF_36602965
 + ('Tari_Eason',_'SF_PF',_'HOU')_SF_36602965
 + ('Tari_Eason',_'SF_PF',_'HOU')_UTIL_36602965 <= 4
Global_team_limit___at_most_4_players_from_MIL:
 ('Bobby_Portis',_'PF_C',_'MIL')_C_36602916
 + ('Bobby_Portis',_'PF_C',_'MIL')_F_36602916
 + ('Bobby_Portis',_'PF_C',_'MIL')_PF_36602916
 + ('Bobby_Portis',_'PF_C',_'MIL')_UTIL_36602916
 + ('Brook_Lopez',_'C',_'MIL')_C_36602934
 + ('Brook_Lopez',_'C',_'MIL')_UTIL_36602934
 + ('Damian_Lillard',_'PG',_'MIL')_G_36602891
 + ('Damian_Lillard',_'PG',_'MIL')_PG_36602891
 + ('Damian_Lillard',_'PG',_'MIL')_UTIL_36602891
 + ('Giannis_Antetokounmpo',_'PF_C',_'MIL')_C_36602883
 + ('Giannis_Antetokounmpo',_'PF_C',_'MIL')_F_36602883
 + ('Giannis_Antetokounmpo',_'PF_C',_'MIL')_PF_36602883
 + ('Giannis_Antetokounmpo',_'PF_C',_'MIL')_UTIL_36602883 <= 4
Max_Salary: 4800 ('Al_Horford',_'C',_'BOS')_C_36602951
 + 4800 ('Al_Horford',_'C',_'BOS')_UTIL_36602951
 + 8100 ('Alperen_Sengun',_'C',_'HOU')_C_36602902
 + 8100 ('Alperen_Sengun',_'C',_'HOU')_UTIL_36602902
 + 4700 ('Amen_Thompson',_'PG_SF',_'HOU')_F_36602953
 + 4700 ('Amen_Thompson',_'PG_SF',_'HOU')_G_36602953
 + 4700 ('Amen_Thompson',_'PG_SF',_'HOU')_PG_36602953
 + 4700 ('Amen_Thompson',_'PG_SF',_'HOU')_SF_36602953
 + 4700 ('Amen_Thompson',_'PG_SF',_'HOU')_UTIL_36602953
 + 6900 ('Bobby_Portis',_'PF_C',_'MIL')_C_36602916
 + 6900 ('Bobby_Portis',_'PF_C',_'MIL')_F_36602916
 + 6900 ('Bobby_Portis',_'PF_C',_'MIL')_PF_36602916
 + 6900 ('Bobby_Portis',_'PF_C',_'MIL')_UTIL_36602916
 + 5800 ('Brook_Lopez',_'C',_'MIL')_C_36602934
 + 5800 ('Brook_Lopez',_'C',_'MIL')_UTIL_36602934
 + 8900 ('Cade_Cunningham',_'PG',_'DET')_G_36602894
 + 8900 ('Cade_Cunningham',_'PG',_'DET')_PG_36602894
 + 8900 ('Cade_Cunningham',_'PG',_'DET')_UTIL_36602894
 + 9600 ('Damian_Lillard',_'PG',_'MIL')_G_36602891
 + 9600 ('Damian_Lillard',_'PG',_'MIL')_PG_36602891
 + 9600 ('Damian_Lillard',_'PG',_'MIL')_UTIL_36602891
 + 7100 ('Derrick_White',_'PG_SG',_'BOS')_G_36602909
 + 7100 ('Derrick_White',_'PG_SG',_'BOS')_PG_36602909
 + 7100 ('Derrick_White',_'PG_SG',_'BOS')_SG_36602909
 + 7100 ('Derrick_White',_'PG_SG',_'BOS')_UTIL_36602909
 + 6900 ('Fred_VanVleet',_'PG',_'HOU')_G_36602913
 + 6900 ('Fred_VanVleet',_'PG',_'HOU')_PG_36602913
 + 6900 ('Fred_VanVleet',_'PG',_'HOU')_UTIL_36602913
 + 11100 ('Giannis_Antetokounmpo',_'PF_C',_'MIL')_C_36602883
 + 11100 ('Giannis_Antetokounmpo',_'PF_C',_'MIL')_F_36602883
 + 11100 ('Giannis_Antetokounmpo',_'PF_C',_'MIL')_PF_36602883
 + 11100 ('Giannis_Antetokounmpo',_'PF_C',_'MIL')_UTIL_36602883
 + 4500 ('Isaiah_Stewart',_'C',_'DET')_C_36602969
 + 4500 ('Isaiah_Stewart',_'C',_'DET')_UTIL_36602969
 + 5300 ('Jabari_Smith_Jr.',_'PF_C',_'HOU')_C_36602936
 + 5300 ('Jabari_Smith_Jr.',_'PF_C',_'HOU')_F_36602936
 + 5300 ('Jabari_Smith_Jr.',_'PF_C',_'HOU')_PF_36602936
 + 5300 ('Jabari_Smith_Jr.',_'PF_C',_'HOU')_UTIL_36602936
 + 6400 ('Jaden_Ivey',_'PG_SG',_'DET')_G_36602925
 + 6400 ('Jaden_Ivey',_'PG_SG',_'DET')_PG_36602925
 + 6400 ('Jaden_Ivey',_'PG_SG',_'DET')_SG_36602925
 + 6400 ('Jaden_Ivey',_'PG_SG',_'DET')_UTIL_36602925
 + 6100 ('Jalen_Duren',_'C',_'DET')_C_36602932
 + 6100 ('Jalen_Duren',_'C',_'DET')_UTIL_36602932
 + 7500 ('Jalen_Green',_'SG',_'HOU')_G_36602906
 + 7500 ('Jalen_Green',_'SG',_'HOU')_SG_36602906
 + 7500 ('Jalen_Green',_'SG',_'HOU')_UTIL_36602906
 + 8400 ('Jaylen_Brown',_'SG_SF',_'BOS')_F_36602897
 + 8400 ('Jaylen_Brown',_'SG_SF',_'BOS')_G_36602897
 + 8400 ('Jaylen_Brown',_'SG_SF',_'BOS')_SF_36602897
 + 8400 ('Jaylen_Brown',_'SG_SF',_'BOS')_SG_36602897
 + 8400 ('Jaylen_Brown',_'SG_SF',_'BOS')_UTIL_36602897
 + 10500 ('Jayson_Tatum',_'SF_PF',_'BOS')_F_36602887
 + 10500 ('Jayson_Tatum',_'SF_PF',_'BOS')_PF_36602887
 + 10500 ('Jayson_Tatum',_'SF_PF',_'BOS')_SF_36602887
 + 10500 ('Jayson_Tatum',_'SF_PF',_'BOS')_UTIL_36602887
 + 5200 ('Jrue_Holiday',_'PG',_'BOS')_G_36602940
 + 5200 ('Jrue_Holiday',_'PG',_'BOS')_PG_36602940
 + 5200 ('Jrue_Holiday',_'PG',_'BOS')_UTIL_36602940
 + 5000 ('Payton_Pritchard',_'PG_SG',_'BOS')_G_36602943
 + 5000 ('Payton_Pritchard',_'PG_SG',_'BOS')_PG_36602943
 + 5000 ('Payton_Pritchard',_'PG_SG',_'BOS')_SG_36602943
 + 5000 ('Payton_Pritchard',_'PG_SG',_'BOS')_UTIL_36602943
 + 4500 ('Tari_Eason',_'SF_PF',_'HOU')_F_36602965
 + 4500 ('Tari_Eason',_'SF_PF',_'HOU')_PF_36602965
 + 4500 ('Tari_Eason',_'SF_PF',_'HOU')_SF_36602965
 + 4500 ('Tari_Eason',_'SF_PF',_'HOU')_UTIL_36602965
 + 6100 ('Tobias_Harris',_'PF',_'DET')_F_36602929
 + 6100 ('Tobias_Harris',_'PF',_'DET')_PF_36602929
 + 6100 ('Tobias_Harris',_'PF',_'DET')_UTIL_36602929 <= 50000
Min_Salary: 4800 ('Al_Horford',_'C',_'BOS')_C_36602951
 + 4800 ('Al_Horford',_'C',_'BOS')_UTIL_36602951
 + 8100 ('Alperen_Sengun',_'C',_'HOU')_C_36602902
 + 8100 ('Alperen_Sengun',_'C',_'HOU')_UTIL_36602902
 + 4700 ('Amen_Thompson',_'PG_SF',_'HOU')_F_36602953
 + 4700 ('Amen_Thompson',_'PG_SF',_'HOU')_G_36602953
 + 4700 ('Amen_Thompson',_'PG_SF',_'HOU')_PG_36602953
 + 4700 ('Amen_Thompson',_'PG_SF',_'HOU')_SF_36602953
 + 4700 ('Amen_Thompson',_'PG_SF',_'HOU')_UTIL_36602953
 + 6900 ('Bobby_Portis',_'PF_C',_'MIL')_C_36602916
 + 6900 ('Bobby_Portis',_'PF_C',_'MIL')_F_36602916
 + 6900 ('Bobby_Portis',_'PF_C',_'MIL')_PF_36602916
 + 6900 ('Bobby_Portis',_'PF_C',_'MIL')_UTIL_36602916
 + 5800 ('Brook_Lopez',_'C',_'MIL')_C_36602934
 + 5800 ('Brook_Lopez',_'C',_'MIL')_UTIL_36602934
 + 8900 ('Cade_Cunningham',_'PG',_'DET')_G_36602894
 + 8900 ('Cade_Cunningham',_'PG',_'DET')_PG_36602894
 + 8900 ('Cade_Cunningham',_'PG',_'DET')_UTIL_36602894
 + 9600 ('Damian_Lillard',_'PG',_'MIL')_G_36602891
 + 9600 ('Damian_Lillard',_'PG',_'MIL')_PG_36602891
 + 9600 ('Damian_Lillard',_'PG',_'MIL')_UTIL_36602891
 + 7100 ('Derrick_White',_'PG_SG',_'BOS')_G_36602909
 + 7100 ('Derrick_White',_'PG_SG',_'BOS')_PG_36602909
 + 7100 ('Derrick_White',_'PG_SG',_'BOS')_SG_36602909
 + 7100 ('Derrick_White',_'PG_SG',_'BOS')_UTIL_36602909
 + 6900 ('Fred_VanVleet',_'PG',_'HOU')_G_36602913
 + 6900 ('Fred_VanVleet',_'PG',_'HOU')_PG_36602913
 + 6900 ('Fred_VanVleet',_'PG',_'HOU')_UTIL_36602913
 + 11100 ('Giannis_Antetokounmpo',_'PF_C',_'MIL')_C_36602883
 + 11100 ('Giannis_Antetokounmpo',_'PF_C',_'MIL')_F_36602883
 + 11100 ('Giannis_Antetokounmpo',_'PF_C',_'MIL')_PF_36602883
 + 11100 ('Giannis_Antetokounmpo',_'PF_C',_'MIL')_UTIL_36602883
 + 4500 ('Isaiah_Stewart',_'C',_'DET')_C_36602969
 + 4500 ('Isaiah_Stewart',_'C',_'DET')_UTIL_36602969
 + 5300 ('Jabari_Smith_Jr.',_'PF_C',_'HOU')_C_36602936
 + 5300 ('Jabari_Smith_Jr.',_'PF_C',_'HOU')_F_36602936
 + 5300 ('Jabari_Smith_Jr.',_'PF_C',_'HOU')_PF_36602936
 + 5300 ('Jabari_Smith_Jr.',_'PF_C',_'HOU')_UTIL_36602936
 + 6400 ('Jaden_Ivey',_'PG_SG',_'DET')_G_36602925
 + 6400 ('Jaden_Ivey',_'PG_SG',_'DET')_PG_36602925
 + 6400 ('Jaden_Ivey',_'PG_SG',_'DET')_SG_36602925
 + 6400 ('Jaden_Ivey',_'PG_SG',_'DET')_UTIL_36602925
 + 6100 ('Jalen_Duren',_'C',_'DET')_C_36602932
 + 6100 ('Jalen_Duren',_'C',_'DET')_UTIL_36602932
 + 7500 ('Jalen_Green',_'SG',_'HOU')_G_36602906
 + 7500 ('Jalen_Green',_'SG',_'HOU')_SG_36602906
 + 7500 ('Jalen_Green',_'SG',_'HOU')_UTIL_36602906
 + 8400 ('Jaylen_Brown',_'SG_SF',_'BOS')_F_36602897
 + 8400 ('Jaylen_Brown',_'SG_SF',_'BOS')_G_36602897
 + 8400 ('Jaylen_Brown',_'SG_SF',_'BOS')_SF_36602897
 + 8400 ('Jaylen_Brown',_'SG_SF',_'BOS')_SG_36602897
 + 8400 ('Jaylen_Brown',_'SG_SF',_'BOS')_UTIL_36602897
 + 10500 ('Jayson_Tatum',_'SF_PF',_'BOS')_F_36602887
 + 10500 ('Jayson_Tatum',_'SF_PF',_'BOS')_PF_36602887
 + 10500 ('Jayson_Tatum',_'SF_PF',_'BOS')_SF_36602887
 + 10500 ('Jayson_Tatum',_'SF_PF',_'BOS')_UTIL_36602887
 + 5200 ('Jrue_Holiday',_'PG',_'BOS')_G_36602940
 + 5200 ('Jrue_Holiday',_'PG',_'BOS')_PG_36602940
 + 5200 ('Jrue_Holiday',_'PG',_'BOS')_UTIL_36602940
 + 5000 ('Payton_Pritchard',_'PG_SG',_'BOS')_G_36602943
 + 5000 ('Payton_Pritchard',_'PG_SG',_'BOS')_PG_36602943
 + 5000 ('Payton_Pritchard',_'PG_SG',_'BOS')_SG_36602943
 + 5000 ('Payton_Pritchard',_'PG_SG',_'BOS')_UTIL_36602943
 + 4500 ('Tari_Eason',_'SF_PF',_'HOU')_F_36602965
 + 4500 ('Tari_Eason',_'SF_PF',_'HOU')_PF_36602965
 + 4500 ('Tari_Eason',_'SF_PF',_'HOU')_SF_36602965
 + 4500 ('Tari_Eason',_'SF_PF',_'HOU')_UTIL_36602965
 + 6100 ('Tobias_Harris',_'PF',_'DET')_F_36602929
 + 6100 ('Tobias_Harris',_'PF',_'DET')_PF_36602929
 + 6100 ('Tobias_Harris',_'PF',_'DET')_UTIL_36602929 >= 49000
Must_have_1_C: ('Al_Horford',_'C',_'BOS')_C_36602951
 + ('Alperen_Sengun',_'C',_'HOU')_C_36602902
 + ('Bobby_Portis',_'PF_C',_'MIL')_C_36602916
 + ('Brook_Lopez',_'C',_'MIL')_C_36602934
 + ('Giannis_Antetokounmpo',_'PF_C',_'MIL')_C_36602883
 + ('Isaiah_Stewart',_'C',_'DET')_C_36602969
 + ('Jabari_Smith_Jr.',_'PF_C',_'HOU')_C_36602936
 + ('Jalen_Duren',_'C',_'DET')_C_36602932 = 1
Must_have_1_F: ('Amen_Thompson',_'PG_SF',_'HOU')_F_36602953
 + ('Bobby_Portis',_'PF_C',_'MIL')_F_36602916
 + ('Giannis_Antetokounmpo',_'PF_C',_'MIL')_F_36602883
 + ('Jabari_Smith_Jr.',_'PF_C',_'HOU')_F_36602936
 + ('Jaylen_Brown',_'SG_SF',_'BOS')_F_36602897
 + ('Jayson_Tatum',_'SF_PF',_'BOS')_F_36602887
 + ('Tari_Eason',_'SF_PF',_'HOU')_F_36602965
 + ('Tobias_Harris',_'PF',_'DET')_F_36602929 = 1
Must_have_1_G: ('Amen_Thompson',_'PG_SF',_'HOU')_G_36602953
 + ('Cade_Cunningham',_'PG',_'DET')_G_36602894
 + ('Damian_Lillard',_'PG',_'MIL')_G_36602891
 + ('Derrick_White',_'PG_SG',_'BOS')_G_36602909
 + ('Fred_VanVleet',_'PG',_'HOU')_G_36602913
 + ('Jaden_Ivey',_'PG_SG',_'DET')_G_36602925
 + ('Jalen_Green',_'SG',_'HOU')_G_36602906
 + ('Jaylen_Brown',_'SG_SF',_'BOS')_G_36602897
 + ('Jrue_Holiday',_'PG',_'BOS')_G_36602940
 + ('Payton_Pritchard',_'PG_SG',_'BOS')_G_36602943 = 1
Must_have_1_PF: ('Bobby_Portis',_'PF_C',_'MIL')_PF_36602916
 + ('Giannis_Antetokounmpo',_'PF_C',_'MIL')_PF_36602883
 + ('Jabari_Smith_Jr.',_'PF_C',_'HOU')_PF_36602936
 + ('Jayson_Tatum',_'SF_PF',_'BOS')_PF_36602887
 + ('Tari_Eason',_'SF_PF',_'HOU')_PF_36602965
 + ('Tobias_Harris',_'PF',_'DET')_PF_36602929 = 1
Must_have_1_PG: ('Amen_Thompson',_'PG_SF',_'HOU')_PG_36602953
 + ('Cade_Cunningham',_'PG',_'DET')_PG_36602894
 + ('Damian_Lillard',_'PG',_'MIL')_PG_36602891
 + ('Derrick_White',_'PG_SG',_'BOS')_PG_36602909
 + ('Fred_VanVleet',_'PG',_'HOU')_PG_36602913
 + ('Jaden_Ivey',_'PG_SG',_'DET')_PG_36602925
 + ('Jrue_Holiday',_'PG',_'BOS')_PG_36602940
 + ('Payton_Pritchard',_'PG_SG',_'BOS')_PG_36602943 = 1
Must_have_1_SF: ('Amen_Thompson',_'PG_SF',_'HOU')_SF_36602953
 + ('Jaylen_Brown',_'SG_SF',_'BOS')_SF_36602897
 + ('Jayson_Tatum',_'SF_PF',_'BOS')_SF_36602887
 + ('Tari_Eason',_'SF_PF',_'HOU')_SF_36602965 = 1
Must_have_1_SG: ('Derrick_White',_'PG_SG',_'BOS')_SG_36602909
 + ('Jaden_Ivey',_'PG_SG',_'DET')_SG_36602925
 + ('Jalen_Green',_'SG',_'HOU')_SG_36602906
 + ('Jaylen_Brown',_'SG_SF',_'BOS')_SG_36602897
 + ('Payton_Pritchard',_'PG_SG',_'BOS')_SG_36602943 = 1
Must_have_1_UTIL: ('Al_Horford',_'C',_'BOS')_UTIL_36602951
 + ('Alperen_Sengun',_'C',_'HOU')_UTIL_36602902
 + ('Amen_Thompson',_'PG_SF',_'HOU')_UTIL_36602953
 + ('Bobby_Portis',_'PF_C',_'MIL')_UTIL_36602916
 + ('Brook_Lopez',_'C',_'MIL')_UTIL_36602934
 + ('Cade_Cunningham',_'PG',_'DET')_UTIL_36602894
 + ('Damian_Lillard',_'PG',_'MIL')_UTIL_36602891
 + ('Derrick_White',_'PG_SG',_'BOS')_UTIL_36602909
 + ('Fred_VanVleet',_'PG',_'HOU')_UTIL_36602913
 + ('Giannis_Antetokounmpo',_'PF_C',_'MIL')_UTIL_36602883
 + ('Isaiah_Stewart',_'C',_'DET')_UTIL_36602969
 + ('Jabari_Smith_Jr.',_'PF_C',_'HOU')_UTIL_36602936
 + ('Jaden_Ivey',_'PG_SG',_'DET')_UTIL_36602925
 + ('Jalen_Duren',_'C',_'DET')_UTIL_36602932
 + ('Jalen_Green',_'SG',_'HOU')_UTIL_36602906
 + ('Jaylen_Brown',_'SG_SF',_'BOS')_UTIL_36602897
 + ('Jayson_Tatum',_'SF_PF',_'BOS')_UTIL_36602887
 + ('Jrue_Holiday',_'PG',_'BOS')_UTIL_36602940
 + ('Payton_Pritchard',_'PG_SG',_'BOS')_UTIL_36602943
 + ('Tari_Eason',_'SF_PF',_'HOU')_UTIL_36602965
 + ('Tobias_Harris',_'PF',_'DET')_UTIL_36602929 = 1
Must_not_play_all_8_players_from_match_BOS@MIL:
 ('Al_Horford',_'C',_'BOS')_C_36602951
 + ('Al_Horford',_'C',_'BOS')_UTIL_36602951
 + ('Bobby_Portis',_'PF_C',_'MIL')_C_36602916
 + ('Bobby_Portis',_'PF_C',_'MIL')_F_36602916
 + ('Bobby_Portis',_'PF_C',_'MIL')_PF_36602916
 + ('Bobby_Portis',_'PF_C',_'MIL')_UTIL_36602916
 + ('Brook_Lopez',_'C',_'MIL')_C_36602934
 + ('Brook_Lopez',_'C',_'MIL')_UTIL_36602934
 + ('Damian_Lillard',_'PG',_'MIL')_G_36602891
 + ('Damian_Lillard',_'PG',_'MIL')_PG_36602891
 + ('Damian_Lillard',_'PG',_'MIL')_UTIL_36602891
 + ('Derrick_White',_'PG_SG',_'BOS')_G_36602909
 + ('Derrick_White',_'PG_SG',_'BOS')_PG_36602909
 + ('Derrick_White',_'PG_SG',_'BOS')_SG_36602909
 + ('Derrick_White',_'PG_SG',_'BOS')_UTIL_36602909
 + ('Giannis_Antetokounmpo',_'PF_C',_'MIL')_C_36602883
 + ('Giannis_Antetokounmpo',_'PF_C',_'MIL')_F_36602883
 + ('Giannis_Antetokounmpo',_'PF_C',_'MIL')_PF_36602883
 + ('Giannis_Antetokounmpo',_'PF_C',_'MIL')_UTIL_36602883
 + ('Jaylen_Brown',_'SG_SF',_'BOS')_F_36602897
 + ('Jaylen_Brown',_'SG_SF',_'BOS')_G_36602897
 + ('Jaylen_Brown',_'SG_SF',_'BOS')_SF_36602897
 + ('Jaylen_Brown',_'SG_SF',_'BOS')_SG_36602897
 + ('Jaylen_Brown',_'SG_SF',_'BOS')_UTIL_36602897
 + ('Jayson_Tatum',_'SF_PF',_'BOS')_F_36602887
 + ('Jayson_Tatum',_'SF_PF',_'BOS')_PF_36602887
 + ('Jayson_Tatum',_'SF_PF',_'BOS')_SF_36602887
 + ('Jayson_Tatum',_'SF_PF',_'BOS')_UTIL_36602887
 + ('Jrue_Holiday',_'PG',_'BOS')_G_36602940
 + ('Jrue_Holiday',_'PG',_'BOS')_PG_36602940
 + ('Jrue_Holiday',_'PG',_'BOS')_UTIL_36602940
 + ('Payton_Pritchard',_'PG_SG',_'BOS')_G_36602943
 + ('Payton_Pritchard',_'PG_SG',_'BOS')_PG_36602943
 + ('Payton_Pritchard',_'PG_SG',_'BOS')_SG_36602943
 + ('Payton_Pritchard',_'PG_SG',_'BOS')_UTIL_36602943 <= 8
Must_not_play_all_8_players_from_match_HOU@DET:
 ('Alperen_Sengun',_'C',_'HOU')_C_36602902
 + ('Alperen_Sengun',_'C',_'HOU')_UTIL_36602902
 + ('Amen_Thompson',_'PG_SF',_'HOU')_F_36602953
 + ('Amen_Thompson',_'PG_SF',_'HOU')_G_36602953
 + ('Amen_Thompson',_'PG_SF',_'HOU')_PG_36602953
 + ('Amen_Thompson',_'PG_SF',_'HOU')_SF_36602953
 + ('Amen_Thompson',_'PG_SF',_'HOU')_UTIL_36602953
 + ('Cade_Cunningham',_'PG',_'DET')_G_36602894
 + ('Cade_Cunningham',_'PG',_'DET')_PG_36602894
 + ('Cade_Cunningham',_'PG',_'DET')_UTIL_36602894
 + ('Fred_VanVleet',_'PG',_'HOU')_G_36602913
 + ('Fred_VanVleet',_'PG',_'HOU')_PG_36602913
 + ('Fred_VanVleet',_'PG',_'HOU')_UTIL_36602913
 + ('Isaiah_Stewart',_'C',_'DET')_C_36602969
 + ('Isaiah_Stewart',_'C',_'DET')_UTIL_36602969
 + ('Jabari_Smith_Jr.',_'PF_C',_'HOU')_C_36602936
 + ('Jabari_Smith_Jr.',_'PF_C',_'HOU')_F_36602936
 + ('Jabari_Smith_Jr.',_'PF_C',_'HOU')_PF_36602936
 + ('Jabari_Smith_Jr.',_'PF_C',_'HOU')_UTIL_36602936
 + ('Jaden_Ivey',_'PG_SG',_'DET')_G_36602925
 + ('Jaden_Ivey',_'PG_SG',_'DET')_PG_36602925
 + ('Jaden_Ivey',_'PG_SG',_'DET')_SG_36602925
 + ('Jaden_Ivey',_'PG_SG',_'DET')_UTIL_36602925
 + ('Jalen_Duren',_'C',_'DET')_C_36602932
 + ('Jalen_Duren',_'C',_'DET')_UTIL_36602932
 + ('Jalen_Green',_'SG',_'HOU')_G_36602906
 + ('Jalen_Green',_'SG',_'HOU')_SG_36602906
 + ('Jalen_Green',_'SG',_'HOU')_UTIL_36602906
 + ('Tari_Eason',_'SF_PF',_'HOU')_F_36602965
 + ('Tari_Eason',_'SF_PF',_'HOU')_PF_36602965
 + ('Tari_Eason',_'SF_PF',_'HOU')_SF_36602965
 + ('Tari_Eason',_'SF_PF',_'HOU')_UTIL_36602965
 + ('Tobias_Harris',_'PF',_'DET')_F_36602929
 + ('Tobias_Harris',_'PF',_'DET')_PF_36602929
 + ('Tobias_Harris',_'PF',_'DET')_UTIL_36602929 <= 8
Binaries
('Al_Horford',_'C',_'BOS')_C_36602951
('Al_Horford',_'C',_'BOS')_UTIL_36602951
('Alperen_Sengun',_'C',_'HOU')_C_36602902
('Alperen_Sengun',_'C',_'HOU')_UTIL_36602902
('Amen_Thompson',_'PG_SF',_'HOU')_F_36602953
('Amen_Thompson',_'PG_SF',_'HOU')_G_36602953
('Amen_Thompson',_'PG_SF',_'HOU')_PG_36602953
('Amen_Thompson',_'PG_SF',_'HOU')_SF_36602953
('Amen_Thompson',_'PG_SF',_'HOU')_UTIL_36602953
('Bobby_Portis',_'PF_C',_'MIL')_C_36602916
('Bobby_Portis',_'PF_C',_'MIL')_F_36602916
('Bobby_Portis',_'PF_C',_'MIL')_PF_36602916
('Bobby_Portis',_'PF_C',_'MIL')_UTIL_36602916
('Brook_Lopez',_'C',_'MIL')_C_36602934
('Brook_Lopez',_'C',_'MIL')_UTIL_36602934
('Cade_Cunningham',_'PG',_'DET')_G_36602894
('Cade_Cunningham',_'PG',_'DET')_PG_36602894
('Cade_Cunningham',_'PG',_'DET')_UTIL_36602894
('Damian_Lillard',_'PG',_'MIL')_G_36602891
('Damian_Lillard',_'PG',_'MIL')_PG_36602891
('Damian_Lillard',_'PG',_'MIL')_UTIL_36602891
('Derrick_White',_'PG_SG',_'BOS')_G_36602909
('Derrick_White',_'PG_SG',_'BOS')_PG_36602909
('Derrick_White',_'PG_SG',_'BOS')_SG_36602909
('Derrick_White',_'PG_SG',_'BOS')_UTIL_36602909
('Fred_VanVleet',_'PG',_'HOU')_G_36602913
('Fred_VanVleet',_'PG',_'HOU')_PG_36602913
('Fred_VanVleet',_'PG',_'HOU')_UTIL_36602913
('Giannis_Antetokounmpo',_'PF_C',_'MIL')_C_36602883
('Giannis_Antetokounmpo',_'PF_C',_'MIL')_F_36602883
('Giannis_Antetokounmpo',_'PF_C',_'MIL')_PF_36602883
('Giannis_Antetokounmpo',_'PF_C',_'MIL')_UTIL_36602883
('Isaiah_Stewart',_'C',_'DET')_C_36602969
('Isaiah_Stewart',_'C',_'DET')_UTIL_36602969
('Jabari_Smith_Jr.',_'PF_C',_'HOU')_C_36602936
('Jabari_Smith_Jr.',_'PF_C',_'HOU')_F_36602936
('Jabari_Smith_Jr.',_'PF_C',_'HOU')_PF_36602936
('Jabari_Smith_Jr.',_'PF_C',_'HOU')_UTIL_36602936
('Jaden_Ivey',_'PG_SG',_'DET')_G_36602925
('Jaden_Ivey',_'PG_SG',_'DET')_PG_36602925
('Jaden_Ivey',_'PG_SG',_'DET')_SG_36602925
('Jaden_Ivey',_'PG_SG',_'DET')_UTIL_36602925
('Jalen_Duren',_'C',_'DET')_C_36602932
('Jalen_Duren',_'C',_'DET')_UTIL_36602932
('Jalen_Green',_'SG',_'HOU')_G_36602906
('Jalen_Green',_'SG',_'HOU')_SG_36602906
('Jalen_Green',_'SG',_'HOU')_UTIL_36602906
('Jaylen_Brown',_'SG_SF',_'BOS')_F_36602897
('Jaylen_Brown',_'SG_SF',_'BOS')_G_36602897
('Jaylen_Brown',_'SG_SF',_'BOS')_SF_36602897
('Jaylen_Brown',_'SG_SF',_'BOS')_SG_36602897
('Jaylen_Brown',_'SG_SF',_'BOS')_UTIL_36602897
('Jayson_Tatum',_'SF_PF',_'BOS')_F_36602887
('Jayson_Tatum',_'SF_PF',_'BOS')_PF_36602887
('Jayson_Tatum',_'SF_PF',_'BOS')_SF_36602887
('Jayson_Tatum',_'SF_PF',_'BOS')_UTIL_36602887
('Jrue_Holiday',_'PG',_'BOS')_G_36602940
('Jrue_Holiday',_'PG',_'BOS')_PG_36602940
('Jrue_Holiday',_'PG',_'BOS')_UTIL_36602940
('Payton_Pritchard',_'PG_SG',_'BOS')_G_36602943
('Payton_Pritchard',_'PG_SG',_'BOS')_PG_36602943
('Payton_Pritchard',_'PG_SG',_'BOS')_SG_36602943
('Payton_Pritchard',_'PG_SG',_'BOS')_UTIL_36602943
('Tari_Eason',_'SF_PF',_'HOU')_F_36602965
('Tari_Eason',_'SF_PF',_'HOU')_PF_36602965
('Tari_Eason',_'SF_PF',_'HOU')_SF_36602965
('Tari_Eason',_'SF_PF',_'HOU')_UTIL_36602965
('Tobias_Harris',_'PF',_'DET')_F_36602929
('Tobias_Harris',_'PF',_'DET')_PF_36602929
('Tobias_Harris',_'PF',_'DET')_UTIL_36602929
End
